proyfinal/src/viki/013/andrea/andrea-localstore/experimentInOfficeAgust.take6/worker_10/ecf26344-7f92-4e85-8bd3-eb27f4d6e419.als.cnf.out
Reading from standard input... Use '--help' for help.
============================[ Problem Statistics ]=============================
|                                                                             |
|  Number of variables:         87638                                         |
|  Number of clauses:          161767                                         |
|  Parse time:                   0.04 s                                       |
|                                                                             |
============================[ Search Statistics ]==============================
| Conflicts |          ORIGINAL         |          LEARNT          | Progress |
|           |    Vars  Clauses Literals |    Limit  Clauses Lit/Cl |          |
===============================================================================
|       100 |   62362   105143   262649 |    38552      100      8 | 28.841 % |
|       250 |   52115   105067   262473 |    42407      197     14 | 40.534 % |
|       475 |   52115   105067   262473 |    46648      422     34 | 40.534 % |
|       812 |   52114    75405   189408 |    51313      752     33 | 40.535 % |
|      1318 |   52095    75339   189255 |    56444     1255     42 | 40.557 % |
|      2077 |   51685    74021   185608 |    62089     1985     46 | 41.024 % |
|      3216 |   51561    73501   184368 |    68297     3120     49 | 41.166 % |
|      4924 |   51307    72355   181627 |    75127     3900     46 | 41.456 % |
|      7486 |   51088    71497   179589 |    82640     6428     46 | 41.706 % |
|     11330 |   50848    70547   177330 |    90904     9810     46 | 41.980 % |
===============================================================================
restarts              : 62
conflicts             : 15198          (9446 /sec)
decisions             : 47211          (0.00 % random) (29344 /sec)
propagations          : 18835764       (11707551 /sec)
conflict literals     : 638564         (49.15 % deleted)
Memory used           : 28.32 MB
CPU time              : 1.60886 s

UNSATISFIABLE
